Route 1: 0 80 31 95 46 4 89 47 5 97 88 51 0
Route 2: 0 34 74 79 77 65 68 16 33 0
Route 3: 0 86 49 27 22 9 17 57 41 54 0
Route 4: 0 100 58 3 40 39 81 76 10 25 66 60 0
Route 5: 0 6 32 15 30 71 37 38 84 0
Route 6: 0 93 36 1 59 13 92 0
Route 7: 0 90 85 8 50 44 7 12 19 87 0
Route 8: 0 2 91 20 14 78 48 62 83 56 55 63 0
Route 9: 0 96 24 73 35 94 26 98 0
Route 10: 0 61 82 70 18 72 11 52 29 42 53 67 69 0
Route 11: 0 45 43 28 99 64 23 21 75 0
